100 78168

 737 819
813 832
830 52
463 209
199 550
271 612
746 705
558 402
64 191
230 51
942 393
952 653
249 680
246 823
940 621
587 719
157 939
735 300
702 622
985 196
564 417
950 664
88 420
313 755
851 640
66 617
662 522
20 356
33 148
840 365
793 364
558 971
73 652
866 702
825 402
343 606
133 492
55 229
61 575
857 852
520 537
272 268
246 405
176 793
628 11
317 320
783 713
705 126
662 306
131 702
102 511
310 89
782 355
292 628
722 352
495 689
361 14
338 257
579 209
10 281
49 443
487 840
623 837
321 389
731 617
569 483
795 147
971 279
625 521
133 630
583 606
83 434
57 144
376 289
349 386
271 14
483 257
111 346
869 698
887 345
76 400
158 207
532 858
933 943
643 172
329 464
122 270
41 221
167 152
922 623
642 183
23 399
279 851
763 72
469 418
400 898
9 283
13 74
924 355
923 727
